c ---- [ banner ] ------------------------------------------------------------
c
c KISSAT SAT Solver
c Copyright (c) 2019-2021 Armin Biere JKU Linz
c 
c Version 2.0.1 02cd69626a53e93e09286b1978ccb5d6bec58b8e
c Apple clang version 13.1.6 (clang-1316.0.21.2) -W -Wall -O3 -DNDEBUG
c Thu Mar 31 15:34:51 EDT 2022 Darwin Randals-Macbook-Pro.local 21.2.0 arm64
c
c ---- [ proving ] -----------------------------------------------------------
c
c opened and writing proof to DRAT file:
c
c   pigeon-sinz-11.drat
c
c ---- [ parsing ] -----------------------------------------------------------
c
c opened and reading DIMACS file:
c
c   pigeon-sinz-11.cnf
c
c parsed 'p cnf 253 364' header
c closing input after reading 14252 bytes (14 KB)
c finished parsing after 0.00 seconds
c
c ---- [ options ] -----------------------------------------------------------
c
c --stable=0                       (different from default '1')
c
c ---- [ solving ] -----------------------------------------------------------
c
c  seconds switched rate      trail   variables
c         MB reductions conflicts glue    remaining
c          level restarts redundant irredundant
c
c *  0.00  0 0 0 0  0 0   0   0 0% 0 364 253 100%
c {  0.00  0 0 0 0  0 0   0   0 0% 0 364 253 100%
c -  0.00  0 12 0 1  2 2 300  72 81% 8 364 253 100%
c u  0.01  0 14 0 1  2 2 669 295 82% 8 364 253 100%
c v  0.01  0 14 0 1  2 2 669 294 82% 8 364 253 100%
c -  0.01  0 17 0 2 71 3 1302 553 83% 8 364 253 100%
c u  0.01  0 17 0 2 71 3 1339 578 83% 8 364 253 100%
c -  0.03  0 18 0 3 266 3 2716 1229 83% 8 364 253 100%
c u  0.03  0 18 0 3 266 3 2750 1229 83% 8 364 253 100%
c v  0.03  0 18 0 3 266 3 2760 1227 83% 8 364 253 100%
c e  0.04  0 18 0 3 365 3 3309 1693 83% 8 324 160 63%
c e  0.04  0 18 0 3 365 3 3309 1693 83% 8 318 156 61%
c -  0.05  0 17 0 4 488 3 4448 440 84% 8 318 156 61%
c u  0.06  0 16 0 4 496 3 4956 677 83% 8 318 156 61%
c -  0.07  0 16 0 5 626 3 6448 1096 84% 8 318 156 61%
c ^  0.07  0 16 0 5 631 3 6474 1114 84% 8 318 156 61%
c u  0.09  0 15 0 5 684 3 7797 1940 84% 8 318 156 61%
c v  0.09  0 15 0 5 684 3 7801 1939 84% 8 318 156 61%
c -  0.10  0 15 0 6 704 3 8685 1780 83% 8 318 156 61%
c -  0.12  0 14 0 7 728 2 11134 2522 83% 7 318 156 61%
c
c  seconds  switched  rate          trail   variables
c         MB reductions conflicts      glue     remaining
c          level restarts    redundant irredundant
c
c u  0.13  0 14 0 7 728 2 11449 2705 83% 7 318 156 61%
c v  0.13  0 14 0 7 728 2 11459 2691 83% 7 318 156 61%
c ^  0.15  0 13 0 7 733 2 13335 3973 82% 7 318 156 61%
c -  0.16  0 13 0 8 733 2 13779 3375 82% 7 318 156 61%
c u  0.19  0 13 0 8 761 2 15938 4676 81% 7 318 156 61%
c v  0.19  0 13 0 8 761 2 15960 4667 81% 7 318 156 61%
c -  0.20  0 12 0 9 761 2 16609 3880 81% 7 318 156 61%
c i  0.21  0 12 0 9 762 2 17634 4421 81% 7 318 155 61%
c -  0.24  0 12 0 10 798 2 19609 3387 80% 7 315 155 61%
c i  0.24  0 12 0 10 798 2 19646 3394 80% 7 315 154 61%
c u  0.27  0 12 0 10 914 2 21369 3976 80% 7 315 154 61%
c v  0.27  0 12 0 10 914 2 21395 3968 80% 7 315 154 61%
c -  0.29  0 12 0 11 988 2 22771 3583 79% 7 312 154 61%
c i  0.30  0 11 0 11 995 2 23566 3924 79% 7 312 153 60%
c e  0.31  0 11 0 11 1033 2 24387 4394 79% 7 316 146 57%
c ^  0.31  0 11 0 11 1033 2 24387 4394 79% 7 316 146 57%
c -  0.34  0 12 0 12 1418 2 26087 1722 79% 7 316 146 57%
c u  0.35  0 12 0 12 1650 2 27731 2569 79% 7 316 146 57%
c v  0.35  0 12 0 12 1650 2 27760 2562 79% 7 316 146 57%
c -  0.38  0 11 0 13 1724 2 29551 2740 79% 7 316 146 57%
c
c  seconds  switched    rate          trail   variables
c         MB  reductions  conflicts      glue     remaining
c          level   restarts    redundant irredundant
c
c i  0.40  0 11 0 13 1806 2 31413 3656 79% 7 316 145 57%
c -  0.42  0 11 0 14 1995 2 33158 2557 79% 7 312 145 57%
c u  0.44  0 11 0 14 2053 2 34991 3569 79% 7 312 145 57%
c v  0.44  0 11 0 14 2053 2 35021 3558 79% 7 312 145 57%
c i  0.46  0 11 0 14 2113 2 36585 4416 79% 7 312 144 57%
c -  0.47  0 11 0 15 2126 2 36902 3526 79% 7 309 144 57%
c i  0.49  0 11 0 15 2223 2 38435 4355 79% 7 309 143 56%
c e  0.51  0 11 0 15 2235 2 40059 5397 78% 7 359 119 47%
c ^  0.51  0 11 0 15 2235 2 40059 5397 78% 7 359 119 47%
c -  0.53  0 11 0 16 2421 2 40774 275 79% 7 359 119 47%
c u  0.55  0 11 0 16 2887 2 43307 1669 79% 7 359 119 47%
c v  0.55  0 11 0 16 2887 2 43311 1661 79% 7 359 119 47%
c -  0.56  0 11 0 17 3234 2 44775 1271 80% 7 359 119 47%
c -  0.60  0 11 0 18 3923 2 48900 2335 80% 7 359 119 47%
c u  0.63  0 11 0 18 4597 2 52830 4704 81% 7 359 119 47%
c v  0.63  0 11 0 18 4597 2 52845 4695 81% 7 359 119 47%
c -  0.64  0 11 0 19 4621 2 53143 2963 81% 7 359 119 47%
c -  0.69  0 11 0 20 4941 2 57501 3450 81% 7 359 119 47%
c e  0.72  0 11 0 20 5057 2 61700 5895 82% 7 394 114 45%
c ^  0.72  0 11 0 20 5057 2 61700 5895 82% 7 394 114 45%
c
c  seconds  switched    rate          trail   variables
c         MB  reductions  conflicts      glue     remaining
c          level   restarts    redundant irredundant
c
c -  0.74  0 11 0 21 5126 2 61975 2315 82% 7 394 114 45%
c u  0.75  0 11 0 21 5361 2 63432 3060 82% 7 394 114 45%
c v  0.75  0 11 0 21 5361 2 63436 3037 82% 7 394 114 45%
c -  0.78  0 11 0 22 5465 2 66558 3059 82% 7 394 114 45%
c -  0.82  0 11 0 23 5802 2 71248 3556 82% 7 394 114 45%
c u  0.86  0 11 0 23 6283 2 75551 4227 83% 7 394 114 45%
c v  0.87  0 11 0 23 6283 2 75554 4202 83% 7 394 114 45%
c -  0.88  0 11 0 24 6338 2 76043 2562 83% 7 394 114 45%
c -  0.92  0 11 0 25 6502 2 80944 3719 83% 7 394 114 45%
c -  0.97  0 11 0 26 6634 2 85944 4702 84% 7 394 114 45%
c u  0.99  0 11 0 26 6773 2 88655 5939 84% 7 394 114 45%
c v  1.00  0 11 0 26 6773 2 88659 5907 84% 7 394 114 45%
c e  1.01  0 11 0 26 6805 2 89886 6499 84% 7 462 109 43%
c s  1.01  0 11 0 26 6805 2 89886 6499 84% 7 460 109 43%
c -  1.03  0 11 0 27 6923 2 91043 1408 84% 7 460 109 43%
c -  1.08  0 11 0 28 7297 2 96241 2647 85% 7 460 109 43%
c -  1.12  0 11 0 29 7655 2 101533 3455 85% 7 460 109 43%
c u  1.14  0 11 0 29 7713 2 102991 936 85% 7 460 109 43%
c v  1.14  0 11 0 29 7713 2 102992 918 85% 7 460 109 43%
c w  1.14  0 11 0 29 7713 2 102992 918 85% 7 460 109 43%
c
c  seconds  switched    rate           trail   variables
c         MB  reductions  conflicts       glue     remaining
c          level   restarts     redundant irredundant
c
c -  1.18  0 11 0 30 8094 2 106919 1794 86% 7 460 109 43%
c -  1.23  0 10 0 31 8491 2 112396 3200 86% 7 460 109 43%
c -  1.28  0 10 0 32 9465 2 117963 3626 86% 7 460 109 43%
c u  1.30  0 10 0 32 9514 2 119173 3698 86% 7 460 109 43%
c v  1.30  0 10 0 32 9514 2 119176 3692 86% 7 460 109 43%
c -  1.34  0 10 0 33 9960 2 123619 3290 86% 7 460 109 43%
c s  1.36  0 10 0 33 10214 2 126115 4377 87% 7 459 109 43%
c e  1.36  0 10 0 33 10214 2 126115 4377 87% 7 473 107 42%
c !  1.36  0 10 0 33 10214 2 126115 4377 87% 7 473 107 42%
c -  1.40  0 10 0 34 10549 2 129363 2766 87% 7 473 107 42%
c -  1.45  0 10 0 35 11183 2 135194 2957 87% 7 473 107 42%
c u  1.46  0 10 0 35 11332 2 136576 3123 87% 7 473 107 42%
c v  1.46  0 10 0 35 11332 2 136578 3121 87% 7 473 107 42%
c w  1.46  0 10 0 35 11332 2 136578 3121 87% 7 473 107 42%
c -  1.51  0 10 0 36 11636 2 141110 2770 88% 7 473 107 42%
c -  1.56  0 10 0 37 12092 2 147111 3492 88% 7 473 107 42%
c -  1.62  0 10 0 38 12415 2 153195 4071 88% 7 473 107 42%
c u  1.64  0 10 0 38 12498 2 155471 4176 88% 7 473 107 42%
c v  1.64  0 10 0 38 12498 2 155472 4174 88% 7 473 107 42%
c -  1.68  0 10 0 39 12656 2 159359 3830 88% 7 473 107 42%
c
c  seconds  switched     rate           trail   variables
c         MB  reductions   conflicts       glue     remaining
c          level   restarts      redundant irredundant
c
c -  1.74  0 10 0 40 12906 2 165603 4647 88% 7 473 107 42%
c -  1.80  0 10 0 41 13201 2 171928 4838 88% 7 473 107 42%
c u  1.84  0 10 0 41 13443 2 175494 2038 88% 7 473 107 42%
c v  1.84  0 10 0 41 13443 2 175495 2004 88% 7 473 107 42%
c -  1.87  0 10 0 42 13645 2 178331 1534 88% 7 473 107 42%
c -  1.92  0 10 0 43 14374 2 184814 2713 89% 8 473 107 42%
c -  1.98  0 10 0 44 14638 2 191374 3815 89% 8 473 107 42%
c u  2.03  0 10 0 44 14849 2 196677 5866 89% 8 473 107 42%
c v  2.03  0 10 0 44 14849 2 196680 5861 89% 8 473 107 42%
c -  2.06  0 10 0 45 14860 2 198007 4217 89% 8 473 107 42%
c -  2.12  0 10 0 46 15398 2 204715 4711 89% 8 473 107 42%
c -  2.18  0 10 0 47 15983 2 211497 4798 89% 8 473 107 42%
c -  2.25  0 10 0 48 16320 2 218353 4713 89% 8 473 107 42%
c u  2.26  0 10 0 48 16350 2 219231 4104 89% 8 473 107 42%
c v  2.26  0 10 0 48 16350 2 219236 4086 89% 8 473 107 42%
c -  2.32  0 10 0 49 16745 2 225282 4061 89% 8 473 107 42%
c -  2.39  0 10 0 50 17185 2 232282 4519 89% 8 473 107 42%
c -  2.46  0 10 0 51 17682 2 239355 5070 89% 8 473 107 42%
c u  2.50  0 10 0 51 17805 2 243166 5871 89% 8 473 107 42%
c v  2.50  0 10 0 51 17805 2 243176 5860 89% 8 473 107 42%
c
c  seconds  switched     rate           trail   variables
c         MB  reductions   conflicts       glue     remaining
c          level   restarts      redundant irredundant
c
c -  2.54  0 10 0 52 18025 2 246497 4205 89% 8 473 107 42%
c -  2.61  0 10 0 53 18432 2 253709 4647 89% 8 473 107 42%
c -  2.68  0 10 0 54 18624 2 260991 5140 89% 8 473 107 42%
c u  2.75  0 10 0 54 18991 2 268368 4582 90% 8 473 107 42%
c v  2.76  0 10 0 54 18991 2 268375 4526 90% 8 473 107 42%
c -  2.76  0 10 0 55 18991 2 268375 2305 90% 8 473 107 42%
c -  2.83  0 10 0 56 19288 2 275792 3879 90% 8 473 107 42%
c -  2.90  0 10 0 57 19634 2 283275 5320 90% 8 473 107 42%
c -  2.98  0 10 0 58 20032 2 290825 5690 90% 8 473 107 42%
c u  3.02  0 10 0 58 20175 2 295085 7134 90% 8 473 107 42%
c v  3.02  0 10 0 58 20175 2 295094 7095 90% 8 473 107 42%
c -  3.06  0 10 0 59 20277 2 298440 5305 90% 8 473 107 42%
c -  3.14  0 10 0 60 20441 2 306123 5868 90% 8 473 107 42%
c -  3.22  0 10 0 61 20559 2 313869 6732 90% 8 473 107 42%
c -  3.30  0 10 0 62 20910 2 321679 6654 90% 8 473 107 42%
c u  3.32  0 10 0 62 20941 2 322987 5984 90% 8 473 107 42%
c v  3.33  0 10 0 62 20941 2 323004 5913 90% 8 473 107 42%
c -  3.40  0 10 0 63 21271 2 329553 5688 90% 8 473 107 42%
c -  3.48  0 10 0 64 21552 2 337490 6198 90% 8 473 107 42%
c -  3.57  0 10 0 65 21838 2 345491 6989 90% 8 473 107 42%
c
c  seconds  switched     rate           trail   variables
c         MB  reductions   conflicts       glue     remaining
c          level   restarts      redundant irredundant
c
c u  3.65  0 10 0 65 22115 2 352335 9496 90% 8 473 107 42%
c v  3.65  0 10 0 65 22115 2 352363 9419 90% 8 473 107 42%
c -  3.68  0 10 0 66 22118 2 353553 6561 90% 8 473 107 42%
c -  3.77  0 10 0 67 22485 2 361677 6932 90% 8 473 107 42%
c i  3.83  0 10 0 67 22550 2 367705 10226 90% 7 473 106 42%
c -  3.87  0 10 0 68 22733 2 369864 938 90% 7 466 106 42%
c -  3.94  0 10 0 69 23626 2 378113 2912 90% 8 466 106 42%
c u  3.99  0 10 0 69 23969 2 383126 3396 90% 8 466 106 42%
c v  3.99  0 10 0 69 23969 2 383133 3387 90% 8 466 106 42%
c -  4.02  0 10 0 70 24290 2 386420 2592 90% 8 466 106 42%
c -  4.10  0 10 0 71 24982 2 394786 3614 90% 8 466 106 42%
c -  4.18  0 10 0 72 25592 2 403212 4171 90% 8 466 106 42%
c -  4.26  0 10 0 73 25976 2 411699 5030 90% 8 466 106 42%
c u  4.30  0 10 0 73 26134 2 415018 2628 90% 8 466 106 42%
c v  4.31  0 10 0 73 26134 2 415022 2599 90% 8 466 106 42%
c -  4.36  0 10 0 74 26545 2 420243 2986 90% 8 466 106 42%
c -  4.45  0 10 0 75 27086 2 428846 4549 90% 8 466 106 42%
c -  4.53  0 10 0 76 27406 2 437508 5652 89% 8 466 106 42%
c -  4.62  0 10 0 77 27868 2 446225 6360 89% 8 466 106 42%
c u  4.66  0 10 0 77 27960 2 448298 4249 89% 8 466 106 42%
c
c  seconds  switched     rate           trail   variables
c         MB  reductions   conflicts       glue     remaining
c          level   restarts      redundant irredundant
c
c v  4.66  0 10 0 77 27960 2 448303 4203 89% 8 466 106 42%
c -  4.73  0 10 0 78 28220 2 454999 4631 89% 8 466 106 42%
c -  4.82  0 10 0 79 28455 2 463830 6090 89% 8 466 106 42%
c -  4.91  0 10 0 80 28864 2 472721 6447 89% 8 466 106 42%
c -  5.00  0 10 0 81 29161 2 481666 6729 89% 8 466 106 42%
c u  5.03  0 10 0 81 29161 2 483540 2565 89% 8 466 106 42%
c v  5.03  0 10 0 81 29161 2 483558 2508 89% 8 466 106 42%
c -  5.10  0 10 0 82 29516 2 490667 3496 89% 8 466 106 42%
c -  5.19  0 10 0 83 30016 2 499722 5082 89% 8 466 106 42%
c -  5.28  0 10 0 84 30320 2 508832 5920 89% 8 466 106 42%
c -  5.37  0 10 0 85 30721 2 517997 6509 89% 8 466 106 42%
c u  5.40  0 10 0 85 30741 2 519692 2642 89% 8 466 106 42%
c v  5.40  0 10 0 85 30741 2 519709 2604 89% 8 466 106 42%
c -  5.47  0 10 0 86 31081 2 527216 3800 89% 8 466 106 42%
c -  5.56  0 10 0 87 31626 2 536493 5377 89% 8 466 106 42%
c -  5.65  0 10 0 88 31989 2 545820 5865 89% 8 466 106 42%
c -  5.75  0 10 0 89 32390 2 555200 6213 90% 8 466 106 42%
c u  5.78  0 10 0 89 32492 2 557039 2184 90% 8 466 106 42%
c v  5.78  0 10 0 89 32492 2 557056 2145 90% 8 466 106 42%
c -  5.85  0 10 0 90 32957 2 564634 2935 90% 8 466 106 42%
c
c  seconds  switched     rate           trail   variables
c         MB  reductions   conflicts       glue     remaining
c          level   restarts      redundant irredundant
c
c -  5.94  0 10 0 91 33426 2 574120 4466 90% 8 466 106 42%
c -  6.03  0 10 0 92 33683 2 583659 5193 90% 8 466 106 42%
c -  6.12  0 10 0 93 34204 2 593253 5876 90% 8 466 106 42%
c u  6.16  0 10 0 93 34291 2 595844 2600 90% 8 466 106 42%
c v  6.16  0 10 0 93 34291 2 595862 2569 90% 8 466 106 42%
c -  6.23  0 10 0 94 34594 2 602896 3478 90% 8 466 106 42%
c -  6.32  0 10 0 95 35046 2 612591 5493 90% 8 466 106 42%
c -  6.42  0 10 0 96 35354 2 622338 6095 90% 8 466 106 42%
c -  6.52  0 10 0 97 35836 2 632135 6219 90% 8 466 106 42%
c u  6.57  0 10 0 97 36022 2 636005 3774 90% 8 466 106 42%
c v  6.57  0 10 0 97 36022 2 636021 3724 90% 8 466 106 42%
c -  6.64  0 10 0 98 36222 2 641985 3846 90% 8 466 106 42%
c -  6.73  0 10 0 99 36728 2 651884 5610 90% 8 466 106 42%
c -  6.83  0 10 0 100 37119 2 661834 6643 90% 8 466 106 42%
c -  6.93  0 10 0 101 37506 2 671836 6905 90% 8 466 106 42%
c u  7.00  0 10 0 101 37675 2 677742 2311 90% 8 466 106 42%
c v  7.00  0 10 0 101 37675 2 677755 2231 90% 8 466 106 42%
c -  7.04  0 10 0 102 37797 2 681885 2212 90% 8 466 106 42%
c -  7.13  0 10 0 103 38019 2 691984 5257 90% 8 466 106 42%
c -  7.23  0 10 0 104 38534 2 702132 7228 90% 8 466 106 42%
c
c  seconds  switched      rate           trail   variables
c         MB  reductions    conflicts       glue     remaining
c          level    restarts      redundant irredundant
c
c -  7.34  0 10 0 105 38878 2 712333 7712 90% 8 466 106 42%
c u  7.44  0 10 0 105 39036 2 720875 6349 90% 8 466 106 42%
c v  7.44  0 10 0 105 39036 2 720892 6252 90% 8 466 106 42%
c -  7.47  0 10 0 106 39036 2 722581 4435 90% 7 466 106 42%
c -  7.57  0 10 0 107 39312 2 732877 7036 90% 7 466 106 42%
c i  7.62  0 10 0 107 39339 2 737078 8869 90% 7 466 105 41%
c -  7.69  0 10 0 108 39768 2 743221 2151 90% 7 459 105 41%
c -  7.78  0 10 0 109 40665 2 753614 4206 90% 7 459 105 41%
c -  7.87  0 10 0 110 41392 2 764054 5744 90% 8 459 105 41%
c u  7.90  0 10 0 110 41415 2 765668 3445 90% 8 459 105 41%
c v  7.90  0 10 0 110 41415 2 765679 3431 90% 8 459 105 41%
c -  7.99  0 10 0 111 41942 2 774545 4708 89% 8 459 105 41%
c -  8.09  0 10 0 112 42485 2 785081 6213 89% 8 459 105 41%
c -  8.19  0 10 0 113 42913 2 795664 7282 89% 8 459 105 41%
c -  8.30  0 10 0 114 43944 2 806294 7412 89% 8 459 105 41%
c u  8.37  0 10 0 114 44141 2 811640 6540 89% 8 459 105 41%
c v  8.37  0 10 0 114 44141 2 811662 6482 89% 8 459 105 41%
c -  8.43  0 10 0 115 44274 2 816971 5959 89% 8 459 105 41%
c -  8.55  0 10 0 116 44989 2 827695 7439 89% 8 459 105 41%
c -  8.69  0 10 0 117 45682 2 838465 8383 89% 8 459 105 41%
c
c  seconds  switched      rate           trail   variables
c         MB  reductions    conflicts       glue     remaining
c          level    restarts      redundant irredundant
c
c -  8.82  0 10 0 118 46079 2 849282 9066 88% 8 459 105 41%
c i  8.86  0 10 0 118 46122 2 852832 10666 88% 8 459 104 41%
c u  8.95  0 10 0 118 46527 2 859093 2557 88% 8 459 104 41%
c v  8.95  0 10 0 118 46527 2 859109 2548 88% 8 459 104 41%
c -  8.97  0 10 0 119 46563 2 860144 1492 88% 8 450 104 41%
c -  9.06  0 10 0 120 47042 2 871054 4516 88% 8 450 104 41%
c -  9.17  0 10 0 121 47866 2 882009 6527 89% 8 450 104 41%
c -  9.27  0 10 0 122 48392 2 893011 7212 89% 8 450 104 41%
c -  9.39  0 10 0 123 48788 2 904057 7465 89% 8 450 104 41%
c u  9.44  0 10 0 123 48912 2 907759 7332 89% 8 450 104 41%
c v  9.44  0 10 0 123 48912 2 907771 7286 89% 8 450 104 41%
c -  9.52  0 10 0 124 49146 2 915147 6333 89% 8 450 104 41%
c -  9.63  0 10 0 125 49378 2 926283 7649 89% 8 450 104 41%
c -  9.75  0 10 0 126 49744 2 937464 8376 89% 7 450 104 41%
c -  9.87  0 10 0 127 50087 2 948688 8631 89% 7 450 104 41%
c i  9.90  0 10 0 127 50094 2 950911 9739 89% 7 450 103 41%
c u  9.98  0 10 0 127 50456 2 957914 3829 89% 7 450 103 41%
c v  9.99  0 10 0 127 50456 2 957930 3804 89% 7 450 103 41%
c - 10.02  0 10 0 128 50528 2 959957 2566 89% 7 442 103 41%
c - 10.12  0 10 0 129 51143 2 971270 5321 89% 7 442 103 41%
c
c  seconds  switched      rate           trail   variables
c         MB  reductions    conflicts       glue     remaining
c          level    restarts      redundant irredundant
c
c - 10.23  0 10 0 130 52111 2 982627 7255 89% 8 442 103 41%
c - 10.34  0 10 0 131 52825 2 994032 7555 89% 8 442 103 41%
c - 10.47  0 10 0 132 53623 2 1005478 7757 89% 8 442 103 41%
c u 10.51  0 10 0 132 53831 2 1009506 8010 89% 8 442 103 41%
c v 10.52  0 10 0 132 53831 2 1009531 7942 89% 8 442 103 41%
c - 10.61  0 10 0 133 54256 2 1016967 6683 88% 8 442 103 41%
c - 10.73  0 10 0 134 54873 2 1028499 7758 88% 8 442 103 41%
c - 10.87  0 10 0 135 55297 2 1040074 8728 88% 8 442 103 41%
c i 10.87  0 10 0 135 55297 2 1040286 8770 88% 8 442 102 40%
c - 11.00  0 10 0 136 55792 2 1051692 4457 88% 8 433 102 40%
c u 11.11  0 10 0 136 56333 2 1062189 5710 88% 8 433 102 40%
c v 11.11  0 10 0 136 56333 2 1062230 5671 88% 8 433 102 40%
c - 11.13  0 10 0 137 56353 2 1063355 3614 88% 8 433 102 40%
c - 11.24  0 10 0 138 56939 2 1075060 6274 88% 8 433 102 40%
c - 11.35  0 10 0 139 57353 2 1086810 8138 89% 8 433 102 40%
c - 11.47  0 10 0 140 57807 2 1098599 8432 89% 8 433 102 40%
c - 11.59  0 10 0 141 58091 2 1110434 8932 89% 8 433 102 40%
c u 11.66  0 10 0 141 58410 2 1115965 5961 89% 8 433 102 40%
c v 11.66  0 10 0 141 58410 2 1116009 5900 89% 8 433 102 40%
c - 11.74  0 10 0 142 58622 2 1122308 5189 89% 8 433 102 40%
c
c  seconds  switched      rate            trail   variables
c         MB  reductions     conflicts       glue     remaining
c          level    restarts       redundant irredundant
c
c - 11.85  0 10 0 143 59345 2 1134224 7045 89% 8 433 102 40%
c - 11.96  0 10 0 144 59893 2 1146183 8260 89% 8 433 102 40%
c - 12.09  0 10 0 145 60369 2 1158183 9439 89% 8 433 102 40%
c - 12.22  0 10 0 146 60780 2 1170225 9929 89% 8 433 102 40%
c u 12.25  0 10 0 146 60780 2 1171378 4769 89% 8 433 102 40%
c v 12.25  0 10 0 146 60780 2 1171432 4673 89% 8 433 102 40%
c - 12.37  0 10 0 147 61131 2 1182309 6994 89% 7 433 102 40%
c - 12.50  0 10 0 148 61524 2 1194434 9775 89% 7 433 102 40%
c i 12.59  0 10 0 148 61730 2 1202670 13941 90% 7 433 101 40%
c - 12.66  0 10 0 149 61950 2 1206600 2642 90% 7 426 101 40%
c - 12.77  0 10 0 150 62565 2 1218806 6118 90% 7 426 101 40%
c u 12.87  0 10 0 150 63172 2 1228086 6905 90% 7 426 101 40%
c v 12.87  0 10 0 150 63172 2 1228140 6859 90% 7 426 101 40%
c - 12.91  0 10 0 151 63344 2 1231056 5330 90% 7 426 101 40%
c - 13.04  0 10 0 152 63997 2 1243344 7756 90% 7 426 101 40%
c - 13.17  0 10 0 153 64769 2 1255673 8850 90% 7 426 101 40%
c - 13.30  0 10 0 154 65420 2 1268042 8834 90% 7 426 101 40%
c - 13.44  0 10 0 155 65911 2 1280451 9093 90% 7 426 101 40%
c u 13.51  0 10 0 155 66162 2 1285837 7636 90% 7 426 101 40%
c v 13.52  0 10 0 155 66162 2 1285914 7571 90% 7 426 101 40%
c
c  seconds  switched      rate            trail   variables
c         MB  reductions     conflicts       glue     remaining
c          level    restarts       redundant irredundant
c
c - 13.60  0 10 0 156 66452 2 1292900 7274 90% 7 426 101 40%
c - 13.74  0 10 0 157 67112 2 1305389 9100 89% 7 426 101 40%
c - 13.89  0 10 0 158 67554 2 1317919 10314 89% 7 426 101 40%
c i 13.96  0 10 0 158 67592 2 1324043 13442 89% 7 426 100 39%
c - 14.05  0 10 0 159 68006 2 1330488 3843 89% 7 418 100 39%
c - 14.17  0 10 0 160 68559 2 1343099 7155 89% 7 418 100 39%
c u 14.21  0 10 0 160 68580 2 1345710 3463 89% 7 418 100 39%
c v 14.22  0 10 0 160 68580 2 1345810 3416 89% 7 418 100 39%
c - 14.31  0 10 0 161 69098 2 1355748 5516 90% 7 418 100 39%
c - 14.44  0 10 0 162 69600 2 1368438 8703 89% 7 418 100 39%
c - 14.58  0 10 0 163 70267 2 1381165 9573 89% 7 418 100 39%
c i 14.71  0 10 0 163 70543 2 1392796 14696 89% 7 418 99 39%
c - 14.75  0 10 0 164 70665 2 1393933 2442 89% 7 412 99 39%
c u 14.87  0 10 0 164 71563 2 1406244 5589 89% 7 412 99 39%
c v 14.87  0 10 0 164 71563 2 1406362 5542 89% 7 412 99 39%
c - 14.89  0 10 0 165 71587 2 1406740 2862 89% 7 412 99 39%
c - 15.01  0 10 0 166 72130 2 1419586 6330 89% 7 412 99 39%
c - 15.14  0 10 0 167 73060 2 1432470 8793 89% 7 412 99 39%
c - 15.28  0 10 0 168 73960 2 1445392 9161 89% 7 412 99 39%
c - 15.42  0 10 0 169 74455 2 1458353 9810 89% 7 412 99 39%
c
c  seconds  switched      rate            trail  variables
c         MB  reductions     conflicts       glue    remaining
c          level    restarts       redundant irredundant
c
c u 15.54  0 10 0 169 74820 2 1467945 8686 89% 7 412 99 39%
c v 15.55  0 10 0 169 74820 2 1468063 8613 89% 7 412 99 39%
c - 15.60  0 10 0 170 74923 2 1471353 5760 89% 7 412 99 39%
c - 15.74  0 10 0 171 75207 2 1484392 8884 89% 7 412 99 39%
c i 15.75  0 10 0 171 75214 2 1485958 9619 89% 7 412 98 39%
c - 15.89  0 10 0 172 75764 2 1497468 5168 89% 7 404 98 39%
c - 16.02  0 10 0 173 76504 2 1510582 8668 89% 7 404 98 39%
c - 16.16  0 10 0 174 77253 2 1523734 9864 89% 7 404 98 39%
c u 16.26  0 10 0 174 77577 2 1531268 11946 89% 7 404 98 39%
c v 16.26  0 10 0 174 77577 2 1531400 11843 89% 7 404 98 39%
c - 16.34  0 10 0 175 77830 2 1536927 9411 89% 7 404 98 39%
c - 16.49  0 10 0 176 78358 2 1550155 10533 89% 7 404 98 39%
c i 16.60  0 10 0 176 78597 2 1559745 15358 89% 7 404 97 38%
c - 16.67  0 10 0 177 78988 2 1563421 3141 89% 7 397 97 38%
c - 16.80  0 10 0 178 80004 2 1576725 6375 89% 7 397 97 38%
c - 16.94  0 10 0 179 81038 2 1590066 8812 89% 7 397 97 38%
c u 17.02  0 10 0 179 81266 2 1595750 7810 89% 7 397 97 38%
c v 17.03  0 10 0 179 81266 2 1595880 7756 89% 7 397 97 38%
c - 17.12  0 10 0 180 81521 2 1603445 8114 89% 7 397 97 38%
c - 17.28  0 10 0 181 82014 2 1616863 10569 89% 7 397 97 38%
c
c  seconds  switched      rate             trail  variables
c         MB  reductions     conflicts        glue    remaining
c          level    restarts        redundant irredundant
c
c - 17.46  0 10 0 182 82292 2 1630316 12288 89% 7 397 97 38%
c i 17.48  0 10 0 182 82299 2 1631929 13078 89% 7 397 96 38%
c - 17.62  0 10 0 183 82624 2 1643806 6869 89% 7 391 96 38%
c i 17.73  0 10 0 183 82835 2 1654218 11868 89% 7 391 95 37%
c - 17.78  0 10 0 184 83127 2 1657333 3634 89% 7 384 95 37%
c u 17.83  0 10 0 184 83332 2 1661716 4465 89% 7 384 95 37%
c v 17.84  0 10 0 184 83332 2 1661904 4370 89% 7 384 95 37%
c - 17.93  0 10 0 185 83818 2 1670898 6321 89% 7 384 95 37%
c - 18.08  0 10 0 186 84803 2 1684499 9312 89% 7 384 95 37%
c - 18.25  0 10 0 187 85267 2 1698137 11217 89% 7 384 95 37%
c i 18.29  0 10 0 187 85297 2 1701829 13239 89% 7 384 94 37%
c - 18.42  0 10 0 188 85938 2 1711811 6124 89% 7 378 94 37%
c - 18.56  0 10 0 189 86651 2 1725522 9777 89% 7 378 94 37%
c u 18.60  0 10 0 189 86790 2 1728229 10155 88% 7 378 94 37%
c v 18.61  0 10 0 189 86790 2 1728457 10077 88% 7 378 94 37%
c - 18.74  0 10 0 190 87564 2 1739270 10384 88% 7 378 94 37%
c i 18.85  0 10 0 190 87927 2 1749849 15104 88% 7 378 93 37%
c - 18.91  0 10 0 191 88344 2 1753054 4828 88% 7 371 93 37%
c - 19.05  0 10 0 192 89253 2 1766876 8294 88% 7 371 93 37%
c - 19.21  0 10 0 193 90052 2 1780735 11351 88% 7 371 93 37%
c
c  seconds  switched      rate             trail  variables
c         MB  reductions     conflicts        glue    remaining
c          level    restarts        redundant irredundant
c
c - 19.38  0 10 0 194 90586 2 1794627 13085 88% 7 371 93 37%
c u 19.41  0 10 0 194 90586 2 1795858 10621 88% 7 371 93 37%
c v 19.42  0 10 0 194 90586 2 1796124 10521 88% 7 371 93 37%
c w 19.42  0 10 0 194 90586 2 1796124 10521 88% 7 371 93 37%
c i 19.45  0 10 0 194 90604 2 1798969 11889 88% 7 371 92 36%
c - 19.58  0 10 0 195 91334 2 1808555 7833 88% 7 365 92 36%
c - 19.74  0 10 0 196 92094 2 1822519 11053 88% 7 365 92 36%
c - 19.91  0 10 0 197 92844 2 1836519 13144 88% 7 365 92 36%
c i 20.01  0 10 0 197 92981 2 1846222 17878 88% 7 365 91 36%
c - 20.09  0 10 0 198 93182 2 1850554 10568 88% 7 358 91 36%
c u 20.28  0 10 0 198 94048 2 1864463 16434 88% 7 358 91 36%
c v 20.29  0 10 0 198 94048 2 1864716 16359 88% 7 358 91 36%
c - 20.31  0 10 0 199 94048 2 1864716 10613 88% 7 358 91 36%
c i 20.42  0 10 0 199 94277 2 1875115 15592 88% 7 358 90 35%
c - 20.49  0 10 0 200 94429 2 1878825 10682 88% 7 353 90 35%
c i 20.56  0 10 0 200 94534 2 1885209 13884 88% 7 353 83 33%
c i 20.60  0 10 0 200 94587 2 1888598 15341 87% 7 353 82 32%
c - 20.68  0 10 0 201 94641 2 1892968 6569 87% 7 323 82 32%
c i 20.70  0 10 0 201 94643 2 1895022 7495 87% 7 323 81 32%
c i 20.76  0 10 0 201 94865 2 1901039 10489 87% 7 323 80 31%
c
c  seconds  switched      rate             trail  variables
c         MB  reductions     conflicts        glue    remaining
c          level    restarts        redundant irredundant
c
c i 20.80  0 10 0 201 94916 2 1904348 12187 87% 7 323 79 31%
c i 20.82  0 9 0 201 94961 2 1906922 13323 87% 7 323 78 31%
c - 20.85  0 10 0 202 94979 2 1907145 5714 87% 7 303 78 31%
c i 20.88  0 9 0 202 95047 2 1910555 7181 87% 7 303 77 30%
c i 20.90  0 9 0 202 95076 2 1912319 8096 87% 7 303 76 30%
c i 20.94  0 9 0 202 95141 2 1916279 10031 87% 7 303 75 30%
c i 20.96  0 9 0 202 95180 2 1917974 10849 87% 7 303 74 29%
c i 20.98  0 9 0 202 95225 2 1919710 11766 87% 7 303 73 29%
c - 21.02  0 9 0 203 95234 2 1921357 6418 87% 7 277 73 29%
c i 21.02  0 9 0 203 95247 2 1921835 6637 87% 7 277 69 27%
c i 21.03  0 9 0 203 95250 2 1922369 6891 87% 7 277 63 25%
c i 21.03  0 9 0 203 95250 2 1922840 7129 87% 7 277 59 23%
c i 21.04  0 9 0 203 95250 2 1923057 7243 87% 7 277 53 21%
c i 21.04  0 9 0 203 95250 2 1923112 7266 87% 7 277 52 20%
c i 21.04  0 9 0 203 95250 2 1923247 7332 87% 7 277 45 18%
c i 21.04  0 9 0 203 95250 2 1923268 7339 87% 7 277 39 15%
c i 21.04  0 9 0 203 95250 2 1923276 7342 87% 7 277 35 14%
c i 21.04  0 9 0 203 95250 2 1923278 7342 87% 7 277 34 13%
c } 21.04  0 9 0 203 95250 2 1923280 7342 87% 7 277 13 5%
c 0 21.04  0 9 0 203 95250 2 1923280 7342 87% 7 277 13 5%
c
c ---- [ result ] ------------------------------------------------------------
c
s UNSATISFIABLE
c
c ---- [ profiling ] ---------------------------------------------------------
c
c          19.80   94.12 %  search
c          19.80   94.12 %  focused
c           1.64    7.81 %  reduce
c           1.24    5.88 %  simplify
c           1.15    5.49 %  probe
c           0.85    4.04 %  vivify
c           0.20    0.97 %  sweep
c           0.08    0.39 %  eliminate
c           0.08    0.37 %  substitute
c           0.01    0.05 %  failed
c           0.01    0.03 %  transitive
c           0.00    0.01 %  ternary
c           0.00    0.01 %  backbone
c           0.00    0.00 %  subsume
c           0.00    0.00 %  parse
c =============================================
c          21.04  100.00 %  total
c
c ---- [ statistics ] --------------------------------------------------------
c
c clauses_learned:                    1880246               98 %  conflicts
c conflicts:                          1923280            91414.25 per second
c decisions:                          3285802                1.71 per conflict
c forward_strengthened:                    95                1 %  strengthened
c forward_subsumed:                        32                0 %  subsumed
c kitten_conflicts:                      1600                0.02 per solved
c kitten_decisions:                   2405405               33.28 per solved
c kitten_propagations:                3594700               49.74 per solved
c kitten_sat:                           71126               98 %  solved
c kitten_solved:                        72268 
c kitten_ticks:                       9216254                2.56 per propagation
c kitten_unknown:                          58                0 %  solved
c kitten_unsat:                          1084                1 %  solved
c learned_units:                            1                0 %  variables
c literals_bumped:                   74460591               39.60 per clause
c literals_deduced:                  47717876               25.38 per clause
c literals_learned:                  18920576               10.06 per clause
c literals_minimized:                       0                0 %  deduced
c literals_minimize_shrunken:         1522460                5 %  shrunken
c literals_shrunken:                 28797343               60 %  deduced
c propagations:                      36611250          1740147    per second
c reductions:                             203             9474    interval
c restarts:                             95250               20.19 interval
c restarts_reused_trails:                 426                0 %  restarts
c strengthened:                          9665               18 %  checks
c subsumption_checks:                   54260 
c subsumed:                            956234             1762 %  checks
c sweep:                                   57            33742    interval
c sweep_completed:                         41                1    sweeps
c sweep_equivalences:                       0                0    variables
c sweep_sat:                            69681               98 %  sweep_solved
c sweep_solved:                         70823               98 %  kitten_solved
c sweep_units:                              0                0 %  variables
c sweep_unsat:                           1084                2 %  sweep_solved
c sweep_variables:                       3743             1474 %  variables
c
c ---- [ proof ] -------------------------------------------------------------
c
c proof_added:                        1912973               50 %  per line
c proof_bytes:                      169800307              162 MB 
c proof_deleted:                      1905617               50 %  per line
c
c ---- [ resources ] ---------------------------------------------------------
c
c maximum-resident-set-size:      11777605632 bytes      11232 MB
c process-time:                            21s              21.04 seconds
c
c ---- [ shutting down ] -----------------------------------------------------
c
c exit 20
-rw-r--r--  1 bryant  staff  169800307 Mar 11 12:01 pigeon-sinz-11.drat
c parsing input formula with 253 variables and 364 clauses
c finished parsing
c detected empty clause; start verification via backward checking
c 364 of 364 clauses in core                            
c 1705209 of 1912974 lemmas in core using 51670812 resolution steps
c 0 RAT lemmas in core; 71960 redundant literals in core lemmas
s VERIFIED
c verification time: 21.143 seconds
